1000
75 75
1 60 82
2 60 352
3 60 858
4 60 451
5 60 565
6 60 771
7 60 464
8 60 681
9 60 834
10 60 667
11 60 735
12 60 976
13 60 48
14 60 462
15 60 241
16 60 661
17 60 982
18 60 905
19 60 716
20 60 148
21 60 83
22 60 430
23 60 617
24 59 455
25 59 873
26 59 563
27 59 232
28 59 686
29 59 808
30 59 578
31 59 648
32 59 187
33 59 242
34 59 872
35 59 307
36 59 797
37 59 575
38 59 521
39 59 389
40 59 581
41 59 448
42 59 391
43 59 660
44 59 313
45 59 790
46 59 384
47 59 736
48 59 855
49 58 395
50 58 389
51 58 449
52 58 41
53 58 136
54 58 225
55 58 365
56 58 556
57 58 108
58 58 213
59 58 421
60 58 78
61 58 438
62 58 45
63 58 98
64 58 697
65 58 462
66 58 630
67 58 749
68 58 986
69 57 528
70 57 640
71 57 12
72 57 110
73 57 151
74 57 382
75 57 631
76 57 683
77 57 0
78 57 691
79 57 889
80 57 497
81 57 587
82 57 995
83 57 743
84 57 135
85 57 275
86 57 283
87 57 966
88 57 540
89 57 921
90 57 1
91 57 136
92 57 975
93 57 515
94 56 315
95 56 81
96 56 520
97 56 242
98 56 210
99 56 346
100 56 871
101 56 517
102 56 956
103 56 150
104 56 375
105 56 233
106 56 455
107 56 155
108 56 796
109 56 225
110 56 35
111 56 651
112 56 727
113 56 814
114 56 43
115 56 393
116 56 635
117 56 670
118 56 536
119 55 189
120 55 444
121 55 167
122 55 275
123 55 561
124 55 409
125 55 836
126 55 527
127 55 232
128 55 100
129 55 639
130 55 43
131 55 325
132 55 459
133 55 531
134 55 428
135 55 303
136 55 734
137 55 150
138 55 74
139 55 863
140 55 872
141 55 130
142 55 577
143 55 440
144 55 668
145 54 512
146 54 551
147 54 358
148 54 192
149 54 14
150 54 602
151 54 395
152 54 34
153 54 967
154 54 519
155 54 901
156 54 686
157 54 362
158 54 330
159 54 427
160 54 510
161 54 221
162 53 818
163 53 879
164 53 94
165 53 201
166 53 312
167 53 828
168 53 855
169 53 865
170 53 665
171 53 61
172 53 559
173 53 606
174 53 775
175 53 294
176 53 656
177 53 80
178 53 378
179 53 90
180 53 707
181 53 722
182 53 815
183 53 584
184 53 307
185 53 263
186 52 678
187 52 881
188 52 185
189 52 751
190 52 436
191 52 217
192 52 292
193 52 53
194 52 513
195 52 919
196 52 435
197 52 544
198 52 437
199 52 495
200 52 158
201 52 574
202 52 32
203 52 851
204 52 63
205 52 260
206 52 130
207 52 655
208 52 364
209 52 999
210 51 265
211 51 75
212 51 107
213 51 461
214 51 497
215 51 371
216 51 595
217 51 841
218 51 148
219 51 793
220 51 974
221 51 889
222 51 972
223 51 874
224 51 304
225 51 385
226 51 474
227 51 146
228 51 86
229 51 616
230 51 709
231 51 403
232 51 516
233 51 258
234 51 121
235 51 488
236 51 37
237 51 695
238 51 479
239 51 566
240 51 995
241 51 956
242 51 745
243 51 766
244 51 773
245 50 8
246 50 321
247 50 500
248 50 5
249 50 365
250 50 141
251 50 636
252 50 190
253 50 902
254 50 307
255 50 88
256 50 253
257 50 708
258 50 306
259 50 244
260 50 304
261 50 169
262 50 408
263 50 817
264 50 672
265 50 186
266 50 38
267 50 791
268 50 297
269 50 481
270 50 908
271 50 435
272 50 916
273 49 312
274 49 967
275 49 365
276 49 658
277 49 843
278 49 755
279 49 245
280 49 752
281 49 497
282 49 610
283 49 412
284 49 631
285 49 852
286 49 782
287 49 120
288 49 147
289 49 640
290 49 260
291 49 743
292 49 552
293 49 560
294 49 989
295 49 972
296 49 433
297 49 638
298 49 621
299 49 349
300 48 634
301 48 366
302 48 9
303 48 793
304 48 231
305 48 586
306 48 164
307 48 178
308 48 756
309 48 263
310 48 161
311 48 679
312 48 960
313 48 730
314 48 501
315 47 181
316 47 619
317 47 476
318 47 277
319 47 570
320 47 45
321 47 724
322 47 273
323 47 466
324 47 597
325 47 256
326 47 236
327 47 645
328 47 0
329 47 963
330 47 88
331 46 255
332 46 402
333 46 100
334 46 320
335 46 499
336 46 800
337 46 322
338 46 362
339 46 780
340 46 348
341 46 929
342 46 600
343 46 594
344 46 896
345 46 610
346 46 817
347 46 946
348 46 239
349 46 959
350 46 266
351 46 280
352 46 981
353 46 522
354 46 833
355 46 735
356 45 924
357 45 507
358 45 359
359 45 930
360 45 317
361 45 854
362 45 297
363 45 464
364 45 140
365 45 432
366 45 391
367 45 23
368 45 844
369 45 156
370 45 257
371 45 832
372 45 282
373 45 65
374 45 55
375 45 378
376 45 276
377 45 676
378 45 191
379 45 829
380 45 670
381 45 451
382 45 704
383 45 231
384 45 570
385 45 784
386 44 687
387 44 359
388 44 995
389 44 29
390 44 187
391 44 349
392 44 745
393 44 405
394 44 731
395 44 732
396 44 213
397 44 286
398 44 459
399 44 332
400 44 260
401 44 495
402 44 524
403 44 560
404 44 703
405 44 113
406 44 922
407 44 39
408 44 877
409 43 133
410 43 428
411 43 273
412 43 451
413 43 55
414 43 921
415 43 816
416 43 644
417 43 217
418 43 59
419 43 971
420 43 930
421 43 442
422 43 637
423 43 390
424 42 134
425 42 596
426 42 189
427 42 924
428 42 660
429 42 933
430 42 985
431 42 290
432 42 802
433 42 895
434 42 521
435 42 304
436 42 295
437 42 138
438 42 571
439 42 351
440 42 739
441 42 94
442 41 796
443 41 463
444 41 154
445 41 341
446 41 755
447 41 230
448 41 414
449 41 869
450 41 270
451 41 365
452 41 62
453 41 52
454 41 231
455 41 668
456 41 811
457 41 415
458 41 586
459 41 814
460 41 754
461 40 89
462 40 313
463 40 53
464 40 979
465 40 907
466 40 717
467 40 73
468 40 107
469 40 168
470 40 28
471 40 135
472 40 657
473 40 138
474 40 446
475 39 615
476 39 292
477 39 832
478 39 565
479 39 901
480 39 351
481 39 487
482 39 507
483 39 994
484 39 41
485 39 637
486 39 78
487 39 165
488 39 321
489 39 899
490 39 64
491 39 747
492 39 47
493 39 59
494 39 630
495 39 387
496 39 323
497 39 333
498 39 943
499 39 524
500 39 548
501 39 768
502 38 488
503 38 286
504 38 20
505 38 859
506 38 101
507 38 94
508 38 816
509 38 285
510 38 621
511 38 121
512 38 541
513 38 202
514 38 596
515 38 502
516 38 867
517 38 201
518 38 323
519 38 318
520 38 592
521 38 664
522 37 919
523 37 557
524 37 930
525 37 214
526 37 3
527 37 214
528 37 886
529 37 414
530 37 620
531 37 225
532 37 369
533 37 52
534 37 712
535 36 140
536 36 670
537 36 199
538 36 211
539 36 963
540 36 897
541 36 841
542 36 455
543 36 585
544 36 765
545 36 678
546 36 128
547 36 69
548 36 454
549 36 995
550 36 712
551 36 161
552 36 706
553 36 335
554 36 660
555 35 252
556 35 310
557 35 793
558 35 793
559 35 954
560 35 15
561 35 51
562 35 68
563 35 215
564 35 89
565 35 656
566 35 392
567 35 648
568 35 461
569 35 490
570 35 89
571 35 952
572 35 470
573 35 398
574 35 726
575 35 604
576 34 966
577 34 444
578 34 864
579 34 679
580 34 33
581 34 548
582 34 727
583 34 123
584 34 959
585 34 165
586 34 378
587 34 998
588 34 966
589 34 565
590 34 809
591 34 731
592 33 189
593 33 387
594 33 541
595 33 524
596 33 748
597 33 96
598 33 651
599 33 695
600 33 163
601 33 989
602 33 341
603 33 402
604 33 596
605 33 647
606 33 9
607 33 458
608 33 296
609 33 709
610 33 299
611 33 551
612 33 751
613 33 226
614 32 97
615 32 814
616 32 394
617 32 178
618 32 344
619 32 361
620 32 265
621 32 487
622 32 881
623 32 930
624 32 350
625 32 381
626 32 758
627 32 489
628 32 606
629 32 891
630 32 412
631 32 380
632 32 918
633 32 505
634 32 260
635 32 980
636 32 355
637 32 226
638 32 72
639 32 62
640 31 815
641 31 346
642 31 690
643 31 71
644 31 293
645 31 778
646 31 478
647 31 621
648 31 669
649 31 855
650 31 759
651 31 230
652 31 770
653 31 281
654 31 941
655 31 294
656 31 787
657 30 618
658 30 531
659 30 114
660 30 251
661 30 182
662 30 830
663 30 672
664 30 0
665 30 386
666 30 279
667 30 599
668 30 36
669 30 782
670 30 466
671 30 647
672 30 797
673 30 301
674 30 907
675 30 714
676 30 239
677 30 73
678 30 537
679 30 999
680 30 850
681 30 408
682 30 418
683 30 668
684 29 930
685 29 439
686 29 108
687 29 295
688 29 552
689 29 300
690 29 877
691 29 716
692 29 564
693 29 322
694 29 134
695 29 970
696 29 535
697 29 991
698 29 907
699 29 962
700 29 465
701 29 829
702 29 76
703 28 577
704 28 204
705 28 263
706 28 551
707 28 15
708 28 232
709 28 3
710 28 328
711 28 284
712 28 332
713 28 845
714 28 686
715 28 863
716 28 515
717 28 778
718 28 407
719 28 721
720 28 345
721 28 899
722 28 503
723 28 951
724 27 637
725 27 892
726 27 758
727 27 34
728 27 845
729 27 487
730 27 324
731 27 622
732 27 616
733 27 424
734 27 35
735 27 854
736 27 379
737 27 771
738 27 156
739 27 560
740 27 245
741 27 940
742 27 575
743 27 310
744 27 954
745 27 714
746 27 291
747 27 553
748 26 390
749 26 664
750 26 386
751 26 166
752 26 976
753 26 954
754 26 29
755 26 602
756 26 458
757 26 125
758 26 210
759 26 511
760 26 957
761 26 635
762 26 118
763 26 652
764 26 662
765 26 530
766 26 573
767 26 769
768 26 80
769 25 636
770 25 22
771 25 157
772 25 292
773 25 26
774 25 647
775 25 559
776 25 331
777 25 867
778 25 870
779 25 33
780 25 417
781 25 42
782 25 406
783 25 774
784 25 840
785 25 859
786 25 507
787 25 635
788 25 316
789 25 378
790 25 835
791 24 507
792 24 15
793 24 748
794 24 261
795 24 700
796 24 259
797 24 695
798 24 552
799 24 864
800 24 638
801 24 929
802 24 843
803 24 702
804 24 22
805 24 363
806 24 990
807 24 652
808 24 831
809 24 904
810 24 831
811 24 312
812 24 675
813 24 170
814 24 230
815 24 523
816 24 677
817 24 16
818 23 59
819 23 990
820 23 411
821 23 783
822 23 568
823 23 930
824 23 943
825 23 436
826 23 387
827 23 257
828 23 168
829 23 199
830 23 553
831 22 97
832 22 197
833 22 761
834 22 206
835 22 126
836 22 700
837 22 776
838 22 148
839 22 60
840 22 607
841 22 689
842 22 512
843 22 888
844 22 546
845 22 744
846 22 744
847 22 535
848 22 61
849 22 230
850 22 790
851 22 838
852 22 955
853 22 123
854 21 348
855 21 22
856 21 521
857 21 612
858 21 958
859 21 298
860 21 1
861 21 437
862 21 121
863 21 63
864 21 75
865 21 358
866 21 690
867 21 168
868 21 248
869 21 557
870 21 289
871 21 881
872 21 799
873 21 228
874 21 924
875 21 715
876 21 463
877 21 268
878 21 789
879 21 121
880 20 478
881 20 327
882 20 246
883 20 319
884 20 299
885 20 817
886 20 486
887 20 80
888 20 87
889 20 769
890 20 812
891 20 402
892 20 365
893 20 880
894 20 178
895 20 363
896 20 222
897 20 127
898 20 14
899 20 759
900 20 452
901 20 706
902 20 700
903 19 456
904 19 967
905 19 532
906 19 0
907 19 500
908 19 727
909 19 839
910 19 138
911 19 995
912 19 564
913 19 995
914 19 948
915 19 288
916 19 311
917 19 692
918 19 244
919 19 650
920 19 937
921 19 547
922 19 815
923 19 145
924 18 261
925 18 443
926 18 484
927 18 243
928 18 332
929 18 766
930 18 266
931 18 374
932 18 578
933 18 280
934 18 676
935 18 39
936 18 872
937 18 144
938 18 692
939 18 176
940 18 369
941 18 827
942 17 742
943 17 996
944 17 251
945 17 727
946 17 323
947 17 206
948 17 896
949 17 624
950 17 511
951 17 737
952 17 73
953 17 775
954 17 466
955 17 179
956 17 563
957 17 736
958 17 213
959 17 763
960 17 165
961 16 785
962 16 763
963 16 111
964 16 763
965 16 852
966 16 221
967 16 340
968 16 628
969 16 291
970 16 625
971 16 784
972 16 262
973 16 433
974 16 31
975 16 21
976 16 527
977 16 667
978 16 319
979 15 685
980 15 801
981 15 861
982 15 513
983 15 191
984 15 262
985 15 647
986 15 707
987 15 208
988 15 746
989 15 636
990 15 354
991 15 434
992 15 204
993 15 587
994 15 521
995 15 630
996 15 926
997 15 106
998 15 693
999 15 172
1000 15 771
